\ Generated by MPModelProtoExporter
\   Name             : 
\   Format           : Free
\   Constraints      : 1
\   Variables        : 5
\     Binary         : 5
\     Integer        : 0
\     Continuous     : 0
Minimize
 Obj: +1000 Mitigation[mitigation_ActionTerm[domain_8j2r1g,_compositeLabels_[AbstractChar[what_Node,_type_Location,_value_nonEU]],_type_Removing],_cost_1000.0,_required_[]] +0.99 Mitigation[mitigation_ActionTerm[domain_eedb56,_compositeLabels_[AbstractChar[what_OutgoingData,_type_Encryption,_value_Encrypted]],_type_Adding],_cost_0.99,_required_[]] +1 Mitigation[mitigation_ActionTerm[domain_3wntc,_compositeLabels_[AbstractChar[what_OutgoingData,_type_Encryption,_value_Encrypted]],_type_Adding],_cost_1.0,_required_[]] +0.98 Mitigation[mitigation_ActionTerm[domain_vnkg73,_compositeLabels_[AbstractChar[what_OutgoingData,_type_Encryption,_value_Encrypted]],_type_Adding],_cost_0.98,_required_[]] +0.97 Mitigation[mitigation_ActionTerm[domain_4wbyft,_compositeLabels_[AbstractChar[what_OutgoingData,_type_Encryption,_value_Encrypted]],_type_Adding],_cost_0.97,_required_[]] 
Subject to
 _0: +1 Mitigation[mitigation_ActionTerm[domain_8j2r1g,_compositeLabels_[AbstractChar[what_Node,_type_Location,_value_nonEU]],_type_Removing],_cost_1000.0,_required_[]] +1 Mitigation[mitigation_ActionTerm[domain_eedb56,_compositeLabels_[AbstractChar[what_OutgoingData,_type_Encryption,_value_Encrypted]],_type_Adding],_cost_0.99,_required_[]] +1 Mitigation[mitigation_ActionTerm[domain_3wntc,_compositeLabels_[AbstractChar[what_OutgoingData,_type_Encryption,_value_Encrypted]],_type_Adding],_cost_1.0,_required_[]] +1 Mitigation[mitigation_ActionTerm[domain_vnkg73,_compositeLabels_[AbstractChar[what_OutgoingData,_type_Encryption,_value_Encrypted]],_type_Adding],_cost_0.98,_required_[]] +1 Mitigation[mitigation_ActionTerm[domain_4wbyft,_compositeLabels_[AbstractChar[what_OutgoingData,_type_Encryption,_value_Encrypted]],_type_Adding],_cost_0.97,_required_[]]  >= 1
Bounds
 0 <= Mitigation[mitigation_ActionTerm[domain_8j2r1g,_compositeLabels_[AbstractChar[what_Node,_type_Location,_value_nonEU]],_type_Removing],_cost_1000.0,_required_[]] <= 1
 0 <= Mitigation[mitigation_ActionTerm[domain_eedb56,_compositeLabels_[AbstractChar[what_OutgoingData,_type_Encryption,_value_Encrypted]],_type_Adding],_cost_0.99,_required_[]] <= 1
 0 <= Mitigation[mitigation_ActionTerm[domain_3wntc,_compositeLabels_[AbstractChar[what_OutgoingData,_type_Encryption,_value_Encrypted]],_type_Adding],_cost_1.0,_required_[]] <= 1
 0 <= Mitigation[mitigation_ActionTerm[domain_vnkg73,_compositeLabels_[AbstractChar[what_OutgoingData,_type_Encryption,_value_Encrypted]],_type_Adding],_cost_0.98,_required_[]] <= 1
 0 <= Mitigation[mitigation_ActionTerm[domain_4wbyft,_compositeLabels_[AbstractChar[what_OutgoingData,_type_Encryption,_value_Encrypted]],_type_Adding],_cost_0.97,_required_[]] <= 1
Binaries
 Mitigation[mitigation_ActionTerm[domain_8j2r1g,_compositeLabels_[AbstractChar[what_Node,_type_Location,_value_nonEU]],_type_Removing],_cost_1000.0,_required_[]]
 Mitigation[mitigation_ActionTerm[domain_eedb56,_compositeLabels_[AbstractChar[what_OutgoingData,_type_Encryption,_value_Encrypted]],_type_Adding],_cost_0.99,_required_[]]
 Mitigation[mitigation_ActionTerm[domain_3wntc,_compositeLabels_[AbstractChar[what_OutgoingData,_type_Encryption,_value_Encrypted]],_type_Adding],_cost_1.0,_required_[]]
 Mitigation[mitigation_ActionTerm[domain_vnkg73,_compositeLabels_[AbstractChar[what_OutgoingData,_type_Encryption,_value_Encrypted]],_type_Adding],_cost_0.98,_required_[]]
 Mitigation[mitigation_ActionTerm[domain_4wbyft,_compositeLabels_[AbstractChar[what_OutgoingData,_type_Encryption,_value_Encrypted]],_type_Adding],_cost_0.97,_required_[]]
End
